c Random 3-SAT formula
c Number of variables: 7
c Number of clauses: 30
p cnf 7 30
-7 6 1 0
-6 5 4 0
-2 3 -6 0
-3 6 7 0
6 -3 7 0
1 6 4 0
-7 -6 -3 0
1 2 -7 0
2 -3 5 0
-6 -7 -5 0
3 -6 1 0
-7 -1 -5 0
3 4 -6 0
-3 -2 -5 0
-5 4 7 0
6 5 4 0
-7 -4 -1 0
4 -5 7 0
2 -1 -5 0
-6 -3 -4 0
2 6 -1 0
2 3 -6 0
4 -1 -7 0
5 -4 7 0
4 -2 5 0
-3 7 -6 0
-1 -2 6 0
7 -3 -4 0
7 -6 -4 0
-5 7 3 0
